NAME : kroA100-C-3-1-a__bsl__29199.tour
COMMENT : Length = 29199.000
COMMENT : Generated by compare_sota_instances.py for bsl
TYPE : TOUR
DIMENSION : 100
TOUR_SECTION
21
1
58
93
28
47
91
32
11
15
17
45
59
74
72
36
99
38
24
84
10
63
6
49
90
79
18
92
75
19
53
88
94
16
22
70
66
65
4
26
56
97
8
42
80
31
89
69
73
50
44
82
95
76
13
33
2
54
40
64
67
61
25
81
68
85
39
37
5
96
78
52
30
48
100
41
71
43
14
3
46
29
34
83
55
7
87
51
9
57
20
12
27
35
86
62
60
77
23
98
-1
EOF
